NAME: berlin52.opt.tour 
TYPE: TOUR 
DIMENSION: 52 
TOUR_SECTION 
10 
17 
31 
2 
32 
33 
25 
11 
7 
1 
44 
3 
26 
0 
42 
23 
21 
20 
18 
6 
30 
24 
13 
36 
40 
41 
38 
15 
37 
27 
22 
28 
16 
35 
14 
5 
43 
50 
51 
46 
49 
9 
8 
4 
48 
29 
34 
47 
45 
12 
39 
19 
